c ---- [ banner ] ------------------------------------------------------------
c
c Kissat SAT Solver
c 
c Copyright (c) 2021-2024 Armin Biere University of Freiburg
c Copyright (c) 2019-2021 Armin Biere Johannes Kepler University Linz
c 
c Version 4.0.1 43f02cf3e992cb44653b35e5cb26f93281552ae0
c gcc (Ubuntu 13.2.0-23ubuntu4) 13.2.0 -W -Wall -O3 -DNDEBUG
c Thu Sep 12 12:27:46 CEST 2024 Linux abryzen9 6.8.0-41-generic x86_64
c
c ---- [ parsing ] -----------------------------------------------------------
c
c opened and reading DIMACS file:
c
c   /data/artifact/AMulet2.0_artifact/exp4/cnf_resyn3_64/64_64_U2_4to2_JCA_Multgen_resyn3.cnf
c
c parsed 'p cnf 21678 85104' header
c closing input after reading 1664080 bytes (2 MB)
c finished parsing after 0.02 seconds
c
c ---- [ options ] -----------------------------------------------------------
c
c --stable=0                       (different from default '1')
c
c ---- [ solving ] -----------------------------------------------------------
c
c  seconds switched rate     size/glue tier1  binary         remaining
c         MB reductions conflicts size  tier2    irredundant
c          level restarts redundant glue  trail         variables
c
c *  0.02  9 0 0 0  0 0   0   0 0.0 0 0 0 0 0% 5210 79892 21675 100%
c (  0.02  9 0 0 0  0 0   0   0 0.0 0 0 0 0 0% 5210 79892 21675 100%
c .  0.03  9 0 0 0  0 0   0   0 0.0 0 0 0 0 0% 5206 79892 21675 100%
c c  0.08 17 0 0 0  0 0   0   0 0.0 0 0 0 0 0% 5460 79581 21507 99%
c d  0.08 17 0 0 0  0 0   0   0 0.0 0 0 0 0 0% 5072 79581 21507 99%
c =  0.12 17 0 0 0  0 0   0   0 0.0 0 0 0 0 0% 5011 79581 21506 99%
c d  0.12 17 0 0 0  0 0   0   0 0.0 0 0 0 0 0% 5009 79581 21506 99%
c f  0.18 16 0 0 0  0 0   0   0 0.0 0 0 0 0 0% 5036 79396 21537 99%
c e  0.31 17 0 0 0  0 0   0   0 0.0 0 0 0 0 0% 3792 80201 16488 76%
c )  0.31 17 0 0 0  0 0   0   0 0.0 0 0 0 0 0% 3792 80201 16488 76%
c {  0.32 17 0 0 0  0 0   0   0 0.0 0 0 2 6 0% 3792 80201 16488 76%
c i  0.32 17 71 0 0 83 19 237 157 1.6 5 3 2 6 4% 3836 80200 16487 76%
c i  0.32 17 65 0 0 128 20 341 253 1.7 5 3 2 6 4% 3837 80200 16486 76%
c i  0.33 17 62 0 0 184 20 501 398 1.7 6 3 2 6 4% 3842 80199 16485 76%
c i  0.33 17 63 0 0 185 20 505 401 1.7 6 3 2 6 4% 3842 80199 16484 76%
c i  0.34 17 86 0 0 208 20 633 502 1.7 6 4 3 7 10% 3851 80198 16483 76%
c -  0.39 18 84 0 1 326 23 1000 774 1.7 6 4 3 8 12% 3865 80163 16483 76%
c -  0.49 18 144 0 2 585 33 2000 1559 1.8 8 4 3 9 16% 3876 80163 16483 76%
c c  0.59 18 140 0 2 717 34 2503 2018 2.0 9 5 3 9 16% 3981 80019 16436 76%
c d  0.59 18 140 0 2 717 34 2503 2010 2.0 9 5 3 9 16% 3890 80018 16436 76%
c
c  seconds   switched   rate       size/glue tier1   binary         remaining
c         MB  reductions conflicts      size  tier2     irredundant
c           level restarts    redundant   glue   trail         variables
c
c b  0.59 18 140 0 2 717 34 2503 2010 2.0 9 5 3 9 16% 3890 80018 16435 76%
c u  0.60 18 140 0 2 717 34 2503 1556 2.0 9 5 3 9 16% 3874 80018 16435 76%
c v  0.61 18 140 0 2 717 34 2503 1398 2.0 9 5 3 9 16% 3874 80018 16435 76%
c w  0.62 18 140 0 2 717 34 2503 1398 2.0 9 5 3 9 16% 3874 80018 16435 76%
c x  0.63 18 140 0 2 717 34 2503 1397 2.0 9 5 3 9 16% 3939 79650 16435 76%
c d  0.67 18 140 0 2 717 34 2503 1397 2.0 9 5 3 9 16% 3937 79645 16432 76%
c t  0.68 18 140 0 2 717 34 2503 1397 2.0 9 5 3 9 16% 3861 79645 16432 76%
c f  0.69 18 140 0 2 717 34 2503 1397 2.0 9 5 3 9 16% 4036 79381 16520 76%
c c  0.73 18 140 0 2 717 34 2503 1397 2.0 9 5 3 9 16% 4033 79381 16519 76%
c d  0.73 18 140 0 2 717 34 2503 1397 2.0 9 5 3 9 16% 4031 79381 16519 76%
c u  0.74 18 140 0 2 717 34 2503 1342 2.0 9 5 3 9 16% 4033 79381 16519 76%
c v  0.75 18 140 0 2 717 34 2503 1262 2.0 9 5 3 9 16% 4033 79381 16519 76%
c w  0.75 18 140 0 2 717 34 2503 1261 2.0 9 5 3 9 16% 4033 79381 16519 76%
c x  0.76 18 140 0 2 717 34 2503 1259 2.0 9 5 3 9 16% 4088 79195 16519 76%
c t  0.77 18 140 0 2 717 34 2503 1259 2.0 9 5 3 9 16% 4034 79195 16519 76%
c f  0.78 18 140 0 2 717 34 2503 1259 2.0 9 5 3 9 16% 4130 78927 16568 76%
c -  0.86 18 133 0 3 883 32 3415 1884 1.9 9 5 4 9 17% 4133 78927 16568 76%
c -  1.02 18 130 0 4 1208 31 5149 3075 2.0 10 5 3 9 19% 4142 78927 16568 76%
c -  1.14 18 126 0 5 1385 27 7149 4284 1.9 10 5 3 9 19% 4177 78925 16568 76%
c d  1.20 18 126 0 5 1485 27 7711 4819 1.9 10 5 3 9 19% 4176 78925 16566 76%
c
c  seconds   switched    rate       size/glue tier1    binary         remaining
c         MB  reductions  conflicts       size  tier2     irredundant
c           level  restarts    redundant    glue   trail         variables
c
c u  1.22 18 126 0 5 1485 27 7711 3992 1.9 10 5 3 9 19% 4182 78925 16566 76%
c v  1.24 18 126 0 5 1485 27 7711 3688 1.9 10 5 3 9 19% 4182 78925 16566 76%
c w  1.24 18 126 0 5 1485 27 7711 3684 1.9 10 5 3 9 19% 4182 78925 16566 76%
c x  1.26 18 126 0 5 1485 27 7711 3684 1.9 10 5 3 9 19% 4207 78853 16563 76%
c =  1.32 18 126 0 5 1485 27 7711 3684 1.9 10 5 3 9 19% 4232 78841 16551 76%
c d  1.32 18 126 0 5 1485 27 7711 3683 1.9 10 5 3 9 19% 4208 78838 16551 76%
c t  1.33 18 126 0 5 1485 27 7711 3683 1.9 10 5 3 9 19% 4177 78838 16551 76%
c f  1.36 18 126 0 5 1485 27 7711 3683 1.9 10 5 3 9 19% 4214 78763 16577 76%
c c  1.41 20 126 0 5 1485 27 7711 3680 1.9 10 5 3 9 19% 4230 78723 16569 76%
c d  1.42 20 126 0 5 1485 27 7711 3680 1.9 10 5 3 9 19% 4214 78723 16569 76%
c u  1.43 20 126 0 5 1485 27 7711 3617 1.9 10 5 3 9 19% 4216 78723 16569 76%
c v  1.45 20 126 0 5 1485 27 7711 3408 1.9 10 5 3 9 19% 4216 78723 16569 76%
c w  1.46 20 126 0 5 1485 27 7711 3398 1.9 10 5 3 9 19% 4216 78723 16569 76%
c x  1.47 20 126 0 5 1485 27 7711 3398 1.9 10 5 3 9 19% 4221 78705 16569 76%
c =  1.55 20 126 0 5 1485 27 7711 3398 1.9 10 5 3 9 19% 4299 78705 16530 76%
c d  1.55 20 126 0 5 1485 27 7711 3396 1.9 10 5 3 9 19% 4216 78705 16530 76%
c t  1.56 20 126 0 5 1485 27 7711 3396 1.9 10 5 3 9 19% 4176 78705 16530 76%
c f  1.59 20 126 0 5 1485 27 7711 3396 1.9 10 5 3 9 19% 4179 78699 16532 76%
c i  1.59 20 126 0 5 1485 27 7711 3396 1.9 10 5 3 9 19% 4179 78699 16532 76%
c -  1.78 20 121 0 6 1692 25 9386 4295 1.9 10 5 3 9 19% 4183 78699 16532 76%
c
c  seconds   switched    rate        size/glue tier1    binary         remaining
c         MB  reductions   conflicts       size  tier2     irredundant
c           level  restarts     redundant    glue   trail         variables
c
c o  1.87 20 123 0 6 1799 26 10115 4978 2.0 11 5 3 9 20% 4188 78699 16532 76%
c -  1.97 20 125 0 7 1935 25 11837 5753 2.0 11 5 3 8 20% 4197 78699 16532 76%
c s  2.04 20 124 0 7 2006 24 12513 6375 2.0 11 5 3 8 20% 4206 78389 16532 76%
c e  2.10 20 124 0 7 2006 24 12513 6375 2.0 11 5 3 8 20% 3124 79106 14954 69%
c 2  2.10 20 124 0 7 2006 24 12513 6375 2.0 11 5 3 8 20% 3123 79106 14954 69%
c s  2.11 20 124 0 7 2006 24 12513 6375 2.0 11 5 3 8 20% 3128 78739 14954 69%
c e  2.12 20 124 0 7 2006 24 12513 6375 2.0 11 5 3 8 20% 3062 78774 14916 69%
c ^  2.12 20 124 0 7 2006 24 12513 6375 2.0 11 5 3 8 20% 3062 78774 14916 69%
c -  2.32 24 124 0 8 2179 24 14485 6154 1.9 10 5 3 9 21% 3065 78774 14916 69%
c u  2.45 24 124 0 8 2317 23 15797 6013 1.9 10 5 3 9 21% 3078 78774 14916 69%
c v  2.48 24 124 0 8 2317 23 15797 5441 1.9 10 5 3 9 21% 3078 78774 14916 69%
c w  2.49 24 124 0 8 2317 23 15797 5431 1.9 10 5 3 9 21% 3078 78774 14916 69%
c t  2.59 24 124 0 8 2317 23 15797 5431 1.9 10 5 3 9 21% 3074 78774 14916 69%
c f  2.62 24 124 0 8 2317 23 15797 5431 1.9 10 5 3 9 21% 3101 78684 14933 69%
c u  2.65 24 124 0 8 2317 23 15797 5283 1.9 10 5 3 9 21% 3102 78684 14933 69%
c v  2.67 24 124 0 8 2317 23 15797 5126 1.9 10 5 3 9 21% 3102 78684 14933 69%
c w  2.68 24 124 0 8 2317 23 15797 5109 1.9 10 5 3 9 21% 3102 78684 14933 69%
c x  2.69 24 124 0 8 2317 23 15797 5107 1.9 10 5 3 9 21% 3129 78649 14933 69%
c t  2.70 24 124 0 8 2317 23 15797 5107 1.9 10 5 3 9 21% 3103 78649 14933 69%
c f  2.73 24 124 0 8 2317 23 15797 5107 1.9 10 5 3 9 21% 3107 78639 14935 69%
c
c  seconds   switched    rate        size/glue tier1    binary         remaining
c         MB  reductions   conflicts       size  tier2     irredundant
c           level  restarts     redundant    glue   trail         variables
c
c -  2.88 24 125 0 9 2487 23 17313 5639 1.9 10 5 3 9 22% 3116 78639 14935 69%
c o  3.14 24 123 0 9 2785 22 20223 8364 1.9 10 6 3 9 22% 3126 78638 14935 69%
c -  3.16 24 123 0 10 2802 22 20315 7384 1.9 10 6 3 9 22% 3127 78638 14935 69%
c -  3.43 24 125 0 11 3050 22 23477 9035 1.9 10 6 3 8 23% 3151 78638 14935 69%
c s  3.51 24 122 0 11 3136 21 25032 10409 1.9 10 5 3 8 22% 3168 78576 14935 69%
c e  3.57 24 122 0 11 3136 21 25032 10409 1.9 10 5 3 8 22% 2738 79228 14410 66%
c s  3.58 24 122 0 11 3136 21 25032 10409 1.9 10 5 3 8 22% 2761 79017 14410 66%
c e  3.58 24 122 0 11 3136 21 25032 10409 1.9 10 5 3 8 22% 2756 79022 14405 66%
c ^  3.58 24 122 0 11 3136 21 25032 10409 1.9 10 5 3 8 22% 2756 79022 14405 66%
c -  3.70 24 120 0 12 3241 20 26795 9616 1.9 10 5 3 8 22% 2770 79022 14405 66%
c c  3.76 24 120 0 12 3260 20 26938 9753 1.9 10 5 3 8 22% 2835 78882 14369 66%
c d  3.76 24 120 0 12 3260 20 26938 9672 1.9 10 5 3 8 22% 2763 78882 14369 66%
c u  3.79 24 120 0 12 3260 20 26938 7608 1.9 10 5 3 8 22% 2745 78882 14369 66%
c v  3.82 24 120 0 12 3260 20 26938 7046 1.9 10 5 3 8 22% 2745 78882 14369 66%
c w  3.82 24 120 0 12 3260 20 26938 7039 1.9 10 5 3 8 22% 2745 78882 14369 66%
c =  3.97 24 120 0 12 3260 20 26938 7039 1.9 10 5 3 8 22% 2763 78882 14360 66%
c d  3.98 24 120 0 12 3260 20 26938 7038 1.9 10 5 3 8 22% 2741 78882 14360 66%
c t  3.99 24 120 0 12 3260 20 26938 7038 1.9 10 5 3 8 22% 2712 78882 14360 66%
c f  4.03 24 120 0 12 3260 20 26938 7038 1.9 10 5 3 8 22% 2764 78717 14394 66%
c u  4.09 24 120 0 12 3260 20 26938 6732 1.9 10 5 3 8 22% 2768 78717 14394 66%
c
c  seconds   switched     rate        size/glue tier1    binary         remaining
c         MB   reductions   conflicts       size  tier2     irredundant
c           level   restarts     redundant    glue   trail         variables
c
c v  4.12 24 120 0 12 3260 20 26938 6561 1.9 10 5 3 8 22% 2768 78717 14394 66%
c w  4.13 24 120 0 12 3260 20 26938 6556 1.9 10 5 3 8 22% 2768 78717 14394 66%
c =  4.29 24 120 0 12 3260 20 26938 6556 1.9 10 5 3 8 22% 2824 78705 14366 66%
c d  4.30 24 120 0 12 3260 20 26938 6556 1.9 10 5 3 8 22% 2763 78705 14366 66%
c t  4.31 24 120 0 12 3260 20 26938 6556 1.9 10 5 3 8 22% 2759 78705 14366 66%
c -  4.81 24 121 0 13 3538 20 30259 8457 1.9 10 5 3 8 23% 2782 78704 14366 66%
c -  5.25 24 120 0 14 3842 19 33864 9822 1.9 10 6 2 8 23% 2806 78700 14366 66%
c -  5.76 24 119 0 15 4233 19 37605 11196 1.9 10 6 2 8 23% 2827 78700 14366 66%
c o  6.13 24 119 0 15 4492 19 40251 13676 1.8 10 6 2 8 24% 2832 78700 14366 66%
c c  6.36 24 119 0 15 4609 19 41286 14624 1.9 10 6 2 8 24% 2861 78642 14353 66%
c d  6.36 24 119 0 15 4609 19 41286 14605 1.9 10 6 2 8 24% 2835 78642 14353 66%
c u  6.41 24 119 0 15 4609 19 41286 12780 1.9 10 6 2 8 24% 2843 78642 14353 66%
c v  6.46 24 119 0 15 4609 19 41286 12124 1.9 10 6 2 8 24% 2843 78642 14353 66%
c w  6.49 24 119 0 15 4609 19 41286 12110 1.9 10 6 2 8 24% 2843 78642 14353 66%
c x  6.52 24 119 0 15 4609 19 41286 12107 1.9 10 6 2 8 24% 2851 78624 14353 66%
c =  6.73 24 119 0 15 4609 19 41286 12107 1.9 10 6 2 8 24% 2979 78619 14289 66%
c d  6.74 24 119 0 15 4609 19 41286 12071 1.9 10 6 2 8 24% 2842 78619 14289 66%
c t  6.75 24 119 0 15 4609 19 41286 12071 1.9 10 6 2 8 24% 2818 78619 14289 66%
c f  6.77 24 119 0 15 4609 19 41286 12071 1.9 10 6 2 8 24% 2822 78598 14294 66%
c u  6.82 24 119 0 15 4609 19 41286 11834 1.9 10 6 2 8 24% 2825 78598 14294 66%
c
c  seconds   switched     rate         size/glue tier1    binary         remaining
c         MB   reductions   conflicts        size  tier2     irredundant
c           level   restarts      redundant    glue   trail         variables
c
c v  6.92 24 119 0 15 4609 19 41286 10160 1.9 10 6 2 8 24% 2825 78598 14294 66%
c w  6.95 24 119 0 15 4609 19 41286 10134 1.9 10 6 2 8 24% 2825 78598 14294 66%
c =  7.16 24 119 0 15 4609 19 41286 10134 1.9 10 6 2 8 24% 2943 78598 14235 66%
c d  7.17 24 119 0 15 4609 19 41286 10122 1.9 10 6 2 8 24% 2822 78598 14235 66%
c t  7.19 24 119 0 15 4609 19 41286 10122 1.9 10 6 2 8 24% 2795 78598 14235 66%
c f  7.20 24 119 0 15 4609 19 41286 10122 1.9 10 6 2 8 24% 2796 78581 14240 66%
c -  7.23 24 119 0 16 4612 19 41478 8608 1.9 10 6 2 8 24% 2799 78581 14240 66%
c -  7.82 24 119 0 17 5010 19 45478 10494 1.8 10 6 2 8 24% 2813 78581 14240 66%
c -  8.42 24 119 0 18 5418 19 49601 12326 1.8 10 6 2 8 24% 2846 78577 14240 66%
c s  8.78 24 119 0 18 5639 18 52170 14765 1.8 10 6 2 8 25% 2853 77874 14240 66%
c e  8.88 24 119 0 18 5639 18 52170 14765 1.8 10 6 2 8 25% 2467 79378 13543 62%
c s  8.89 24 119 0 18 5639 18 52170 14765 1.8 10 6 2 8 25% 2487 79043 13543 62%
c e  8.91 24 119 0 18 5639 18 52170 14765 1.8 10 6 2 8 25% 2471 79075 13533 62%
c ^  8.91 24 119 0 18 5639 18 52170 14765 1.8 10 6 2 8 25% 2471 79075 13533 62%
c -  9.27 24 119 0 19 5784 18 53846 12414 1.8 10 6 2 8 25% 2473 79075 13533 62%
c -  9.93 24 119 0 20 6121 18 58204 14017 1.8 10 6 2 8 25% 2487 79075 13533 62%
c u 10.11 24 119 0 20 6179 18 58937 12419 1.8 10 6 2 8 25% 2505 79074 13533 62%
c v 10.19 24 119 0 20 6179 18 58937 10384 1.8 10 6 2 8 25% 2506 79074 13533 62%
c w 10.20 24 119 0 20 6179 18 58937 10374 1.8 10 6 2 8 25% 2506 79074 13533 62%
c = 10.50 24 119 0 20 6179 18 58937 10374 1.8 10 6 2 8 25% 2852 79054 13360 62%
c
c  seconds   switched     rate         size/glue tier1    binary         remaining
c         MB   reductions   conflicts        size  tier2     irredundant
c           level   restarts      redundant    glue   trail         variables
c
c d 10.51 24 119 0 20 6179 18 58937 10328 1.8 10 6 2 8 25% 2494 79054 13360 62%
c t 10.52 24 119 0 20 6179 18 58937 10328 1.8 10 6 2 8 25% 2468 79054 13360 62%
c f 10.57 24 119 0 20 6179 18 58937 10328 1.8 10 6 2 8 25% 2480 78990 13369 62%
c c 10.63 24 119 0 20 6179 18 58937 10324 1.8 10 6 2 8 25% 2491 78968 13365 62%
c d 10.63 24 119 0 20 6179 18 58937 10324 1.8 10 6 2 8 25% 2483 78968 13365 62%
c u 10.68 24 119 0 20 6179 18 58937 10009 1.8 10 6 2 8 25% 2484 78968 13365 62%
c v 10.75 24 119 0 20 6179 18 58937 9571 1.8 10 6 2 8 25% 2484 78968 13365 62%
c w 10.77 24 119 0 20 6179 18 58937 9551 1.8 10 6 2 8 25% 2484 78968 13365 62%
c = 11.05 24 119 0 20 6179 18 58937 9551 1.8 10 6 2 8 25% 2596 78947 13309 61%
c d 11.05 24 119 0 20 6179 18 58937 9546 1.8 10 6 2 8 25% 2481 78947 13309 61%
c t 11.06 24 119 0 20 6179 18 58937 9546 1.8 10 6 2 8 25% 2441 78947 13309 61%
c f 11.08 24 119 0 20 6179 18 58937 9546 1.8 10 6 2 8 25% 2448 78923 13312 61%
c - 11.73 24 119 0 21 6488 18 62678 11197 1.8 10 6 2 8 26% 2462 78922 13312 61%
c - 12.42 24 118 0 22 6888 18 67260 13360 1.8 10 6 2 8 26% 2490 78921 13312 61%
c o 12.85 24 117 0 22 7119 18 70253 16174 1.8 10 6 2 8 26% 2505 78920 13312 61%
c - 13.16 24 116 0 23 7292 18 71951 15054 1.8 10 6 2 8 26% 2514 78920 13312 61%
c - 13.94 24 116 0 24 7760 17 76746 16556 1.8 10 6 2 8 26% 2528 78917 13312 61%
c d 14.44 26 116 0 24 8078 17 80019 19632 1.8 11 6 2 8 26% 2535 78916 13309 61%
c u 14.53 26 116 0 24 8078 17 80019 16868 1.8 11 6 2 8 26% 2550 78916 13309 61%
c v 14.61 26 116 0 24 8078 17 80019 15999 1.8 11 6 2 8 26% 2550 78916 13309 61%
c
c  seconds   switched     rate         size/glue tier1    binary         remaining
c         MB   reductions   conflicts        size  tier2     irredundant
c           level   restarts      redundant    glue   trail         variables
c
c w 14.64 26 116 0 24 8078 17 80019 15986 1.8 11 6 2 8 26% 2550 78916 13309 61%
c x 14.71 26 116 0 24 8078 17 80019 15985 1.8 11 6 2 8 26% 2574 78568 13309 61%
c = 15.06 26 116 0 24 8078 17 80019 15985 1.8 11 6 2 8 26% 2696 78556 13248 61%
c d 15.07 26 116 0 24 8078 17 80019 15964 1.8 11 6 2 8 26% 2574 78556 13248 61%
c t 15.08 26 116 0 24 8078 17 80019 15964 1.8 11 6 2 8 26% 2523 78556 13248 61%
c f 15.10 26 116 0 24 8078 17 80019 15964 1.8 11 6 2 8 26% 2527 78515 13254 61%
c u 15.17 26 116 0 24 8078 17 80019 15641 1.8 11 6 2 8 26% 2529 78515 13254 61%
c v 15.28 26 116 0 24 8078 17 80019 13583 1.8 11 6 2 8 26% 2530 78515 13254 61%
c w 15.33 26 116 0 24 8078 17 80019 13525 1.8 11 6 2 8 26% 2530 78515 13254 61%
c = 15.69 26 116 0 24 8078 17 80019 13525 1.8 11 6 2 8 26% 3308 78457 12865 59%
c d 15.69 26 116 0 24 8078 17 80019 13430 1.8 11 6 2 8 26% 2510 78457 12865 59%
c t 15.71 26 116 0 24 8078 17 80019 13430 1.8 11 6 2 8 26% 2323 78457 12865 59%
c f 15.73 26 116 0 24 8078 17 80019 13430 1.8 11 6 2 8 26% 2364 78251 12891 59%
c - 15.95 26 116 0 25 8211 17 81644 12728 1.8 11 6 2 8 26% 2373 78251 12891 59%
c - 16.67 26 116 0 26 8718 17 86645 14980 1.8 11 6 2 8 27% 2384 78251 12891 59%
c - 17.09 26 115 0 27 9101 17 91745 16947 1.8 11 6 2 7 27% 2414 78250 12891 59%
c s 17.50 26 115 0 27 9561 17 95881 20864 1.8 11 6 2 7 27% 2429 75387 12891 59%
c e 17.58 26 115 0 27 9561 17 95881 20864 1.8 11 6 2 7 27% 1888 77488 12283 57%
c 2 17.58 26 115 0 27 9561 17 95881 20864 1.8 11 6 2 7 27% 1877 77488 12283 57%
c s 17.58 26 115 0 27 9561 17 95881 20864 1.8 11 6 2 7 27% 1889 76640 12283 57%
c
c  seconds   switched     rate         size/glue tier1    binary         remaining
c         MB   reductions   conflicts        size  tier2     irredundant
c           level   restarts      redundant    glue   trail         variables
c
c e 17.60 26 115 0 27 9561 17 95881 20864 1.8 11 6 2 7 27% 1868 76707 12270 57%
c ^ 17.60 26 115 0 27 9561 17 95881 20864 1.8 11 6 2 7 27% 1868 76707 12270 57%
c - 17.76 26 115 0 28 9694 17 96941 16331 1.8 11 6 2 7 27% 1870 76707 12270 57%
c - 18.38 26 116 0 29 10097 17 102234 18315 1.8 11 6 2 7 28% 1885 76706 12270 57%
c d 18.65 26 115 0 29 10292 17 104658 20417 1.8 11 6 2 7 28% 1884 76704 12265 57%
c u 18.70 26 115 0 29 10292 17 104658 17225 1.8 11 6 2 7 28% 1898 76704 12265 57%
c v 18.78 26 115 0 29 10292 17 104658 15891 1.8 11 6 2 7 28% 1898 76704 12265 57%
c w 18.81 26 115 0 29 10292 17 104658 15863 1.8 11 6 2 7 28% 1898 76704 12265 57%
c x 18.86 26 115 0 29 10292 17 104658 15857 1.8 11 6 2 7 28% 1956 76440 12265 57%
c = 18.97 26 115 0 29 10292 17 104658 15857 1.8 11 6 2 7 28% 2352 76432 12067 56%
c d 18.97 26 115 0 29 10292 17 104658 15774 1.8 11 6 2 7 28% 1952 76432 12067 56%
c t 18.98 26 115 0 29 10292 17 104658 15774 1.8 11 6 2 7 28% 1827 76432 12067 56%
c f 19.02 26 115 0 29 10292 17 104658 15774 1.8 11 6 2 7 28% 1830 76366 12073 56%
c u 19.10 26 115 0 29 10292 17 104658 15329 1.8 11 6 2 7 28% 1845 76366 12073 56%
c v 19.15 26 115 0 29 10292 17 104658 13545 1.8 11 6 2 7 28% 1845 76366 12073 56%
c w 19.18 26 115 0 29 10292 17 104658 13467 1.8 11 6 2 7 28% 1845 76366 12073 56%
c x 19.22 26 115 0 29 10292 17 104658 13466 1.8 11 6 2 7 28% 1860 76321 12073 56%
c = 19.52 26 115 0 29 10292 17 104658 13466 1.8 11 6 2 7 28% 1978 76166 11999 55%
c d 19.53 26 115 0 29 10292 17 104658 13437 1.8 11 6 2 7 28% 1861 76165 11999 55%
c t 19.54 26 115 0 29 10292 17 104658 13437 1.8 11 6 2 7 28% 1769 76165 11999 55%
c
c  seconds   switched      rate          size/glue tier1    binary         remaining
c         MB   reductions    conflicts         size  tier2     irredundant
c           level   restarts        redundant    glue   trail         variables
c
c f 19.55 26 115 0 29 10292 17 104658 13437 1.8 11 6 2 7 28% 1775 76141 12001 55%
c - 19.90 26 117 0 30 10493 17 107619 14014 1.8 11 6 2 7 29% 1773 76141 12001 55%
c o 20.16 26 117 0 30 10698 17 110277 16576 1.8 11 6 2 7 29% 1779 76141 12001 55%
c - 20.45 26 117 0 31 10903 17 113096 16632 1.8 11 6 2 7 29% 1787 76140 12001 55%
c - 21.04 26 116 0 32 11407 17 118663 18787 1.8 11 6 2 7 29% 1799 76140 12001 55%
c - 21.64 26 116 0 33 11937 17 124320 20546 1.8 11 6 2 7 30% 1809 76138 12001 55%
c - 22.20 26 115 0 34 12427 17 130065 22194 1.8 11 6 2 7 30% 1818 76134 12001 55%
c u 22.50 26 115 0 34 12696 17 132947 21184 1.8 11 6 2 7 29% 1830 76133 12001 55%
c v 22.59 26 115 0 34 12696 17 132947 17934 1.8 11 6 2 7 29% 1830 76133 12001 55%
c w 22.63 26 115 0 34 12696 17 132947 17865 1.8 11 6 2 7 29% 1830 76133 12001 55%
c = 22.96 26 115 0 34 12696 17 132947 17865 1.8 11 6 2 7 29% 1874 76131 11979 55%
c d 22.97 26 115 0 34 12696 17 132947 17854 1.8 11 6 2 7 29% 1828 76131 11979 55%
c t 22.98 26 115 0 34 12696 17 132947 17854 1.8 11 6 2 7 29% 1806 76131 11979 55%
c u 23.05 26 115 0 34 12696 17 132947 17292 1.8 11 6 2 7 29% 1808 76131 11979 55%
c v 23.11 26 115 0 34 12696 17 132947 16568 1.8 11 6 2 7 29% 1808 76131 11979 55%
c w 23.14 26 115 0 34 12696 17 132947 16490 1.8 11 6 2 7 29% 1808 76131 11979 55%
c x 23.18 26 115 0 34 12696 17 132947 16479 1.8 11 6 2 7 29% 1846 75886 11979 55%
c t 23.49 26 115 0 34 12696 17 132947 16479 1.8 11 6 2 7 29% 1813 75886 11979 55%
c - 23.90 26 115 0 35 12955 17 135896 16628 1.8 11 6 2 7 30% 1814 75885 11979 55%
c - 24.47 26 116 0 36 13353 16 141813 19257 1.8 11 6 2 7 30% 1824 75884 11979 55%
c
c  seconds   switched      rate          size/glue tier1    binary         remaining
c         MB   reductions    conflicts         size  tier2     irredundant
c           level   restarts        redundant    glue   trail         variables
c
c - 25.10 26 116 0 37 13908 16 147813 21471 1.8 11 6 2 7 30% 1829 75884 11979 55%
c - 25.72 26 117 0 38 14408 16 153895 23262 1.8 11 6 2 7 31% 1846 75884 11979 55%
c s 26.06 26 117 0 38 14678 16 158028 27198 1.8 11 6 2 7 30% 1861 74540 11979 55%
c e 26.21 27 117 0 38 14678 16 158028 27198 1.8 11 6 2 7 30% 1303 92995 9201 42%
c s 26.26 27 117 0 38 14678 16 158028 27198 1.8 11 6 2 7 30% 1310 90995 9201 42%
c e 26.29 27 117 0 38 14678 16 158028 27198 1.8 11 6 2 7 30% 1256 91155 9170 42%
c ^ 26.29 27 117 0 38 14678 16 158028 27198 1.8 11 6 2 7 30% 1256 91155 9170 42%
c - 26.49 27 116 0 39 14840 16 160059 10886 1.8 11 6 2 7 30% 1256 91155 9170 42%
c o 26.51 27 117 0 39 14853 16 160277 11092 1.8 11 6 2 7 30% 1257 91155 9170 42%
c u 26.92 27 117 0 39 15317 16 164968 13851 1.8 11 6 2 7 30% 1264 91155 9170 42%
c v 26.97 27 117 0 39 15317 16 164968 11556 1.8 11 6 2 7 30% 1264 91155 9170 42%
c w 27.01 27 117 0 39 15317 16 164968 11408 1.8 11 6 2 7 30% 1264 91155 9170 42%
c x 27.09 27 117 0 39 15317 16 164968 11367 1.8 11 6 2 7 30% 1350 89764 9170 42%
c d 27.09 27 117 0 39 15317 16 164968 11366 1.8 11 6 2 7 30% 1348 89763 9169 42%
c t 27.10 27 117 0 39 15317 16 164968 11366 1.8 11 6 2 7 30% 1283 89763 9169 42%
c f 27.18 27 117 0 39 15317 16 164968 11366 1.8 11 6 2 7 30% 1301 89483 9178 42%
c u 27.22 27 117 0 39 15317 16 164968 11179 1.8 11 6 2 7 30% 1304 89483 9178 42%
c v 27.25 27 117 0 39 15317 16 164968 10784 1.8 11 6 2 7 30% 1304 89483 9178 42%
c w 27.28 27 117 0 39 15317 16 164968 10613 1.8 11 6 2 7 30% 1304 89483 9178 42%
c x 27.37 27 117 0 39 15317 16 164968 10595 1.8 11 6 2 7 30% 1332 89113 9178 42%
c
c  seconds   switched      rate          size/glue tier1    binary        remaining
c         MB   reductions    conflicts         size  tier2     irredundant
c           level   restarts        redundant    glue   trail        variables
c
c = 27.73 27 117 0 39 15317 16 164968 10595 1.8 11 6 2 7 30% 1576 88621 9011 42%
c d 27.74 27 117 0 39 15317 16 164968 10430 1.8 11 6 2 7 30% 1332 88620 9011 42%
c t 27.75 27 117 0 39 15317 16 164968 10430 1.8 11 6 2 7 30% 1246 88620 9011 42%
c f 27.83 27 117 0 39 15317 16 164968 10430 1.8 11 6 2 7 30% 1262 88433 9018 42%
c i 27.85 27 117 0 39 15343 16 165265 10694 1.8 11 6 2 7 30% 1265 88433 9017 42%
c i 27.85 27 117 0 39 15343 16 165274 10694 1.8 11 6 2 7 30% 1268 88429 9013 42%
c i 27.85 27 117 0 39 15343 16 165277 10694 1.8 11 6 2 7 30% 1269 88427 9011 42%
c } 27.85 27 117 0 39 15343 16 165279 10694 1.8 11 6 2 7 30% 1269 88427 9009 42%
c 0 27.85 27 117 0 39 15343 16 165279 10694 1.8 11 6 2 7 30% 1269 88427 9009 42%
c
c ---- [ result ] ------------------------------------------------------------
c
s UNSATISFIABLE
c
c ---- [ profiling ] ---------------------------------------------------------
c
c          19.14   68.71 %  search
c          19.14   68.71 %  focused
c           8.40   30.15 %  simplify
c           7.88   28.31 %  probe
c           3.73   13.40 %  sweep
c           2.56    9.20 %  vivify
c           0.67    2.40 %  eliminate
c           0.66    2.35 %  factor
c           0.45    1.61 %  substitute
c           0.36    1.28 %  congruence
c           0.29    1.03 %  preprocess
c           0.19    0.69 %  reduce
c           0.13    0.46 %  fastel
c           0.11    0.41 %  subsume
c           0.08    0.29 %  transitive
c           0.05    0.18 %  backbone
c           0.02    0.06 %  parse
c           0.01    0.05 %  lucky
c =============================================
c          27.85  100.00 %  total
c
c ---- [ statistics ] --------------------------------------------------------
c
c chronological:                         2845                2 %  conflicts
c conflicts:                           165279             5933.73 per second
c congruent:                              276                1 %  variables
c decisions:                          2714554               16.42 per conflict
c eliminated:                           11332               52 %  variables
c factored:                               327                2 %  variables
c fast_eliminated:                       5049               45 %  eliminated
c fast_strengthened:                      137                3 %  per strengthened
c fast_subsumed:                           45                0 %  per subsumed
c iterations:                               9                0 %  variables
c propagations:                     114133944          4097560    per second
c reductions:                              39             4238    interval
c reordered:                                6            27546    interval
c restarts:                             15343               11    interval
c strengthened:                          4919                0 %  checks
c substituted:                           1581                7 %  variables
c subsumed:                              9010                0 %  checks
c switched:                                 0                0    interval
c vivified:                             64448               16 %  checks
c
c ---- [ glue usage ] --------------------------------------------------------
c
c focused glue 2   used 78238 clauses 32.14% accumulated 61.17% tier1
c focused glue 3   used 32658 clauses 13.42% accumulated 74.58%
c focused glue 4-5 used 24962 clauses 10.25% accumulated 84.84%
c focused glue 6   used  8350 clauses  3.43% accumulated 88.27%
c focused glue 7   used  6715 clauses  2.76% accumulated 91.03% tier2
c
c ---- [ resources ] ---------------------------------------------------------
c
c maximum-resident-set-size:         28454912 bytes         27 MB
c process-time:                            28s              27.85 seconds
c
c ---- [ shutting down ] -----------------------------------------------------
c
c exit 20
